Problem:    
Rows:       68
Columns:    29 (20 integer, 20 binary)
Non-zeros:  204
Status:     INTEGER OPTIMAL
Objective:  value = 23.1153 (MINimum)

   No.   Row name        Activity     Lower bound   Upper bound
------ ------------    ------------- ------------- -------------
     1 r.5                   23.1153             0               
     2 r.6                   23.1153      -999.655               
     3 r.7                   1023.12             0               
     4 r.8                  -976.885      -997.999               
     5 r.9                   23.1153             0               
     6 r.10                  23.1153      -995.695               
     7 r.11                  1023.12             0               
     8 r.12                 -978.886      -991.546               
     9 r.13                  1023.12             0               
    10 r.14                 -976.885      -976.938               
    11 r.15                  23.1153             0               
    12 r.16                  23.1153      -971.469               
    13 r.17                  1023.12             0               
    14 r.18                 -999.947      -999.947               
    15 r.19                  23.1153             0               
    16 r.20                   0.0535      -998.329               
    17 r.21                        1             1             = 
    18 r.22                        1             1             = 
    19 r.23                        1             1             = 
    20 r.24                        1             1             = 
    21 r.25                     1000             2               
    22 r.26                    -1000         -1001               
    23 r.27                     2000      -995.695               
    24 r.28                        2             2               
    25 r.29                       -2         -1001               
    26 r.30                  -2.0013      -991.546               
    27 r.31                     1001             2               
    28 r.32                    -1001         -1001               
    29 r.33                     2000      -976.938               
    30 r.34                     1001             2               
    31 r.35                    -1001         -1001               
    32 r.36                     2000      -971.469               
    33 r.37                  23.0618      -999.655               
    34 r.38                 -976.938      -997.999               
    35 r.39                  23.0618      -999.655               
    36 r.40                 -976.938      -997.999               
    37 r.41                     1000             2               
    38 r.42                    -1000         -1001               
    39 r.43                     2000        0.3451               
    40 r.44                        2             2               
    41 r.45                       -2         -1001               
    42 r.46                   2.0013        2.0013               
    43 r.47                     1001             2               
    44 r.48                    -1001         -1001               
    45 r.49                     2000      -976.938               
    46 r.50                     1001             2               
    47 r.51                    -1001         -1001               
    48 r.52                     2002      -971.469               
    49 r.53                  23.0618      -995.695               
    50 r.54                  -978.94      -991.546               
    51 r.55                  23.0618      -995.695               
    52 r.56                  -978.94      -991.546               
    53 r.57                     1001             2               
    54 r.58                    -1001         -1001               
    55 r.59                     2000        0.3451               
    56 r.60                     1001             2               
    57 r.61                    -1001         -1001               
    58 r.62                     2000        2.0013               
    59 r.63                     1001             2               
    60 r.64                    -1001         -1001               
    61 r.65                     2000        4.3048               
    62 r.66                     1001             2               
    63 r.67                    -1001         -1001               
    64 r.68                     1998        8.4543               
    65 r.69                 -976.938      -976.938               
    66 r.70                  23.0618      -971.469               
    67 r.71                 -976.938      -976.938               
    68 r.72                  23.0618      -971.469               

   No. Column name       Activity     Lower bound   Upper bound
------ ------------    ------------- ------------- -------------
     1 tt                    23.1153             0               
     2 s_1_1        *              0             0             1 
     3 t_1_1                       0             0               
     4 s_2_1        *              1             0             1 
     5 t_2_1                       0             0               
     6 s_1_2        *              0             0             1 
     7 t_1_2                       0             0               
     8 s_2_2        *              1             0             1 
     9 t_2_2                  2.0013             0               
    10 s_1_3        *              1             0             1 
    11 t_1_3                       0             0               
    12 s_2_3        *              0             0             1 
    13 t_2_3                       0             0               
    14 s_1_4        *              1             0             1 
    15 t_1_4                 23.0618             0               
    16 s_2_4        *              0             0             1 
    17 t_2_4                 23.0618             0               
    18 r_1_1_2      *              1             0             1 
    19 u_1_1_2      *              0             0             1 
    20 r_2_1_2      *              0             0             1 
    21 u_2_1_2      *              0             0             1 
    22 r_1_1_3      *              1             0             1 
    23 u_1_1_3      *              0             0             1 
    24 r_2_1_3      *              1             0             1 
    25 u_2_1_3      *              0             0             1 
    26 r_1_2_3      *              1             0             1 
    27 u_1_2_3      *              0             0             1 
    28 r_2_2_3      *              1             0             1 
    29 u_2_2_3      *              0             0             1 

Integer feasibility conditions:

KKT.PE: max.abs.err = 0.00e+00 on row 0
        max.rel.err = 0.00e+00 on row 0
        High quality

KKT.PB: max.abs.err = 0.00e+00 on row 0
        max.rel.err = 0.00e+00 on row 0
        High quality

End of output
